(set-logic QF_S)
(declare-fun var0 () String)
(declare-fun var1 () Int)
(declare-fun var2 () Bool)
(declare-fun var3 () String)
(declare-fun var4 () Int)
(declare-fun var5 () Bool)
(declare-fun var6 () String)
(declare-fun var7 () Int)
(declare-fun var8 () Bool)
(assert (>= (str.len (str.substr var6 var1 var4)) (str.indexof "cx%Z,K8c#T" var3 var1)))
(assert (<= (str.len (str.substr var3 var1 var4)) (str.len (str.at "9`f&`j*XGd" var4))))
(assert (not (< var7 var1)))
(assert (str.contains (str.replace var0 "UlRS~CdMY{" var0) (str.substr var6 var7 var7)))
(check-sat)